unknown
(model
; cardinality of BoundSet is 3
(declare-sort BoundSet 0)
; rep: @uc_BoundSet_0
; rep: @uc_BoundSet_1
; rep: @uc_BoundSet_2
; cardinality of UnboundSet is 1
(declare-sort UnboundSet 0)
(declare-fun groundTerm_4 () UnboundSet)
(define-fun IsInAlaska ((BOUND_VARIABLE_472 BoundSet)) Bool true)
(define-fun HasCyclicalSwings ((BOUND_VARIABLE_472 BoundSet)) Bool true)
(define-fun HasClimate ((BOUND_VARIABLE_472 BoundSet)) Bool true)
(define-fun Is300YearLong ((BOUND_VARIABLE_472 BoundSet)) Bool false)
(define-fun IsThere ((BOUND_VARIABLE_472 BoundSet)) Bool false)
(define-fun IsMedieval ((BOUND_VARIABLE_472 BoundSet)) Bool false)
(define-fun HasHeatWave ((BOUND_VARIABLE_472 BoundSet)) Bool false)
)
sat
(model
; cardinality of BoundSet is 1
(declare-sort BoundSet 0)
; rep: @uc_BoundSet_0
; cardinality of UnboundSet is 1
(declare-sort UnboundSet 0)
(declare-fun groundTerm_7 () UnboundSet)
(define-fun IsInAlaska ((BOUND_VARIABLE_516 BoundSet)) Bool true)
(define-fun HasCyclicalSwings ((BOUND_VARIABLE_516 BoundSet)) Bool true)
(define-fun HasClimate ((BOUND_VARIABLE_516 BoundSet)) Bool true)
(define-fun Is300YearLong ((BOUND_VARIABLE_516 BoundSet)) Bool true)
(define-fun IsThere ((BOUND_VARIABLE_516 BoundSet)) Bool false)
(define-fun IsMedieval ((BOUND_VARIABLE_516 BoundSet)) Bool false)
(define-fun HasHeatWave ((BOUND_VARIABLE_516 BoundSet)) Bool false)
)
